/*********************************************
    * Lab01 - FCR
    * Author: Coso
    * Creation Date: Mar, 2019
    *********************************************/
instance_name = "medium_instance_16_FCR";

d = 5;
r = 15;

SCj = [249 233 240 241 229];
Dk = [10 26 36 42 50 72 66 14 100 31 23 89 97 61 74];

Cjk = [[37 59 72 87 58 79 39 87 70 46 67 60 85 62 73]
 [63 30 65 89 49 31 80 32 80 81 39 66 39 88 45]
 [40 53 86 45 40 79 34 72 58 77 62 82 70 47 89]
 [48 38 35 47 58 75 65 60 87 56 58 78 35 80 70]
 [69 76 61 35 56 64 52 33 40 41 68 45 89 37 32]];
Fjk = [[633 510 352 672 423 336 480 385 853 489 850 769 609 776 824]
 [864 458 350 367 888 629 595 467 797 653 552 626 579 418 786]
 [829 536 628 435 439 509 774 541 437 421 682 875 587 397 303]
 [376 499 611 332 654 805 535 767 687 410 657 776 685 438 776]
 [453 460 842 552 485 684 487 717 878 581 561 855 417 676 860]];
